% From JaCoP's nonogramRepository/data104.nin
 rows = 25;
 row_rule_len = 5;
 row_rules = array2d(1..rows, 1..row_rule_len, 
[
 0,0,0,2,2,
 0,0,0,4,4,
 0,4,3,3,4,
 0,0,0,0,25,
 0,4,3,3,4,
 4,2,2,2,4,
 2,2,4,2,2,
 0,0,3,4,3,
 0,0,4,2,3,
 0,0,0,0,11,
 0,0,0,0,10,
 0,0,0,0,8,
 0,0,0,0,6,
 0,0,0,0,5,
 0,0,0,0,5,
 0,0,0,0,5,
 0,0,0,0,7,
 0,0,0,0,8,
 0,0,0,0,9,
 0,0,0,4,3,
 0,0,0,5,2,
 0,0,0,6,2,
 0,0,0,4,2,
 0,0,0,2,2,
 0,0,0,3,4
]);

 cols = 25;
 col_rule_len = 3;
 col_rules = array2d(1..cols, 1..col_rule_len, 
[
 0,0,1,
 0,0,5,
 0,0,5,
 0,0,7,
 0,0,7,
 0,1,3,
 0,7,4,
 8,2,1,
 3,4,3,
 1,4,2,
 1,4,4,
 1,2,13,
 0,1,16,
 0,1,15,
 1,2,10,
 0,1,10,
 3,5,4,
 0,9,9,
 0,7,8,
 0,1,1,
 0,7,1,
 0,0,7,
 0,0,5,
 0,0,5,
 0,0,1
]);

